c Result of efficient AIG-to-CNF conversion using package CNF
p cnf 452 1745
-2 410 411 412 413 0
2 -413 0
2 -412 0
2 -410 0
2 -411 0
3 -414 -415 0
3 -414 -416 0
-3 414 0
-3 415 416 0
-4 5 12 15 0
-4 5 14 15 0
4 -5 0
4 -15 0
4 -12 -14 0
5 6 -10 0
5 6 -7 0
5 6 -11 0
-5 -6 0
-5 7 10 11 0
6 -404 -406 0
-6 404 0
-6 406 0
-7 433 8 9 0
-7 410 8 9 0
7 -8 0
7 -9 0
7 -410 -433 0
-8 413 435 0
-8 412 436 0
-8 435 436 0
-8 412 413 0
8 -412 -435 0
8 -413 -436 0
9 -414 -437 0
-9 414 0
-9 437 0
-10 417 439 0
-10 416 440 0
-10 439 440 0
-10 416 417 0
10 -416 -439 0
10 -417 -440 0
-11 415 434 0
-11 411 438 0
-11 434 438 0
-11 411 415 0
11 -411 -434 0
11 -415 -438 0
12 -406 -13 0
-12 406 0
-12 13 0
13 -404 -405 0
-13 404 0
-13 405 0
14 -410 -411 0
14 -410 -412 0
-14 410 0
-14 411 412 0
15 -437 -438 -16 0
15 -437 -439 -16 0
-15 16 0
-15 437 0
-15 438 439 0
16 -404 405 -406 0
-16 404 0
-16 -405 0
-16 406 0
17 -18 21 0
17 18 -21 0
-17 18 21 0
-17 -18 -21 0
-18 -19 -20 0
-18 19 20 0
18 19 -20 0
18 -19 20 0
19 439 -440 0
19 -439 440 0
-19 -439 -440 0
-19 439 440 0
20 437 -438 0
20 -437 438 0
-20 -437 -438 0
-20 437 438 0
-21 -22 -23 0
-21 22 23 0
21 22 -23 0
21 -22 23 0
22 435 -436 0
22 -435 436 0
-22 -435 -436 0
-22 435 436 0
23 433 -434 0
23 -433 434 0
-23 -433 -434 0
-23 433 434 0
-24 25 28 0
-24 -25 -28 0
24 -25 28 0
24 25 -28 0
-25 -26 -27 0
-25 26 27 0
25 26 -27 0
25 -26 27 0
26 414 -415 0
26 -414 415 0
-26 -414 -415 0
-26 414 415 0
27 416 -417 0
27 -416 417 0
-27 -416 -417 0
-27 416 417 0
-28 -29 -30 0
-28 29 30 0
28 29 -30 0
28 -29 30 0
29 410 -411 0
29 -410 411 0
-29 -410 -411 0
-29 410 411 0
30 412 -413 0
30 -412 413 0
-30 -412 -413 0
-30 412 413 0
31 -32 -88 0
-31 32 0
-31 88 0
32 -33 -51 0
-32 33 0
-32 51 0
33 34 -50 0
-33 -34 0
-33 50 0
34 -426 -35 -43 0
34 -427 -35 43 0
-34 35 0
-34 427 43 0
-34 426 -43 0
-35 417 36 41 0
-35 -417 -37 41 0
35 -41 0
35 417 -36 0
35 -417 37 0
36 404 -405 -406 0
-36 406 0
-36 405 0
-36 -404 0
37 -38 40 0
-37 38 0
-37 -40 0
-38 -404 39 36 0
-38 407 39 36 0
38 -39 0
38 -36 0
38 404 -407 0
-39 404 0
-39 405 407 0
-39 405 406 0
39 -404 -405 0
39 -404 -406 -407 0
40 -406 -39 0
-40 406 0
-40 39 0
41 -39 -42 0
-41 39 0
-41 42 0
-42 -406 0
-42 -407 442 0
-42 407 415 0
42 406 -407 -442 0
42 406 407 -415 0
-43 44 48 0
-43 45 47 48 0
43 -48 0
43 -44 -47 0
43 -44 -45 0
44 408 -13 0
44 407 -13 0
-44 13 0
-44 -407 -408 0
45 -438 46 0
-45 438 0
-45 -46 0
-46 407 452 0
46 -407 0
46 -452 0
-47 -407 444 0
-47 407 439 0
-47 407 452 0
47 -407 -444 0
47 407 -439 -452 0
-48 -44 0
-48 441 -49 0
-48 440 49 0
48 -440 44 49 0
48 -441 44 -49 0
49 404 408 -409 0
-49 409 0
-49 -408 0
-49 -404 0
-50 428 35 43 0
-50 429 35 -43 0
50 -35 0
50 -429 -43 0
50 -428 43 0
51 -52 -63 0
-51 52 0
-51 63 0
52 53 -62 0
-52 -53 0
-52 62 0
53 -426 -54 -58 0
53 -427 -54 58 0
-53 54 0
-53 427 58 0
-53 426 -58 0
-54 -416 -38 56 0
-54 416 55 56 0
54 -56 0
54 416 -55 0
54 -416 38 0
-55 36 40 0
55 -36 0
55 -40 0
56 -39 -57 0
-56 39 0
-56 57 0
-57 -406 0
-57 -407 417 0
-57 407 414 0
57 406 -407 -417 0
57 406 407 -414 0
-58 44 61 0
-58 59 60 61 0
58 -61 0
58 -44 -60 0
58 -44 -59 0
59 -437 46 0
-59 437 0
-59 -46 0
-60 -407 443 0
-60 407 438 0
-60 407 452 0
60 -407 -443 0
60 407 -438 -452 0
-61 -44 0
-61 441 -49 0
-61 439 49 0
61 -439 44 49 0
61 -441 44 -49 0
-62 428 54 58 0
-62 429 54 -58 0
62 -54 0
62 -429 -58 0
62 -428 58 0
63 -64 -77 0
-63 64 0
-63 77 0
64 65 -76 0
-64 -65 0
-64 76 0
65 -426 -66 -71 0
65 -427 -66 71 0
-65 66 0
-65 427 71 0
-65 426 -71 0
-66 414 36 67 0
-66 -414 -38 67 0
66 -67 0
66 414 -36 0
66 -414 38 0
67 -39 -69 0
67 -415 -39 -68 0
-67 39 0
-67 415 69 0
-67 68 69 0
68 406 -407 0
-68 -406 0
-68 407 0
-69 406 -407 0
-69 -406 70 0
-69 406 412 0
69 -406 -70 0
69 406 407 -412 0
-70 414 415 416 0
70 -414 0
70 -416 0
70 -415 0
-71 44 74 0
-71 72 73 74 0
71 -74 0
71 -44 -73 0
71 -44 -72 0
72 -435 46 0
-72 435 0
-72 -46 0
-73 407 436 0
-73 -407 417 0
-73 407 452 0
73 -407 -417 0
73 407 -436 -452 0
-74 -44 0
-74 441 -75 0
-74 437 75 0
74 -437 44 75 0
74 -441 44 -75 0
75 404 -409 0
-75 -404 0
-75 409 0
-76 428 66 71 0
-76 429 66 -71 0
76 -66 0
76 -429 -71 0
76 -428 71 0
77 78 -87 0
-77 -78 0
-77 87 0
78 -426 -79 -83 0
78 -427 -79 83 0
-78 79 0
-78 427 83 0
-78 426 -83 0
-79 415 36 80 0
-79 -415 -38 80 0
79 -80 0
79 415 -36 0
79 -415 38 0
80 -39 -81 0
80 -416 -39 -68 0
-80 39 0
-80 416 81 0
-80 68 81 0
-81 406 -407 0
-81 -406 -82 0
-81 406 413 0
81 -406 82 0
81 406 407 -413 0
82 415 -416 0
82 -415 416 0
-82 -415 -416 0
-82 415 416 0
-83 44 86 0
-83 84 85 86 0
83 -86 0
83 -44 -85 0
83 -44 -84 0
84 -436 46 0
-84 436 0
-84 -46 0
-85 -407 442 0
-85 407 437 0
-85 407 452 0
85 -407 -442 0
85 407 -437 -452 0
-86 -44 0
-86 441 -49 0
-86 438 49 0
86 -438 44 49 0
86 -441 44 -49 0
-87 428 79 83 0
-87 429 79 -83 0
87 -79 0
87 -429 -83 0
87 -428 83 0
88 -89 -103 0
-88 89 0
-88 103 0
89 90 -102 0
-89 -90 0
-89 102 0
90 -426 -91 -95 0
90 -427 -91 95 0
-90 91 0
-90 427 95 0
-90 426 -95 0
-91 413 36 93 0
-91 -413 -92 93 0
91 -93 0
91 413 -36 0
91 -413 92 0
92 404 -406 0
92 -404 -405 406 0
-92 -404 -406 0
-92 404 406 0
-92 -404 405 0
93 -39 -94 0
-93 39 0
-93 94 0
-94 -406 0
-94 -407 414 0
-94 407 411 0
94 406 -407 -414 0
94 406 407 -411 0
-95 44 98 101 0
-95 -44 96 98 0
95 -98 0
95 44 -101 0
95 -44 -96 0
-96 -46 97 0
-96 434 97 0
96 -97 0
96 -434 46 0
-97 407 435 0
-97 -407 416 0
-97 407 452 0
97 -407 -416 0
97 407 -435 -452 0
98 -99 -100 0
-98 99 0
-98 100 0
99 -441 44 0
-99 441 0
-99 -44 0
100 404 -408 0
100 404 -409 0
-100 -404 0
-100 408 409 0
101 -436 100 0
-101 436 0
-101 -100 0
-102 428 91 95 0
-102 429 91 -95 0
102 -91 0
102 -429 -95 0
102 -428 95 0
103 -104 -115 0
-103 104 0
-103 115 0
104 105 -114 0
-104 -105 0
-104 114 0
105 -426 -106 -110 0
105 -427 -106 110 0
-105 106 0
-105 427 110 0
-105 426 -110 0
-106 412 55 108 0
-106 -412 -107 108 0
106 -108 0
106 -412 107 0
106 412 -55 0
-107 -404 39 0
-107 406 39 0
107 -39 0
107 404 -406 0
108 -39 -109 0
-108 39 0
-108 109 0
-109 -406 0
-109 -407 413 0
-109 407 410 0
109 406 -407 -413 0
109 406 407 -410 0
-110 44 98 113 0
-110 -44 98 111 0
110 -98 0
110 44 -113 0
110 -44 -111 0
-111 -46 112 0
-111 433 112 0
111 -112 0
111 -433 46 0
-112 407 434 0
-112 -407 415 0
-112 407 452 0
112 -407 -415 0
112 407 -434 -452 0
113 -435 100 0
-113 435 0
-113 -100 0
-114 428 106 110 0
-114 429 106 -110 0
114 -106 0
114 -429 -110 0
114 -428 110 0
115 -116 -127 0
-115 116 0
-115 127 0
116 117 -126 0
-116 -117 0
-116 126 0
117 -426 -118 -122 0
117 -427 -118 122 0
-117 118 0
-117 427 122 0
-117 426 -122 0
-118 410 36 119 0
-118 -410 -107 119 0
118 -119 0
118 410 -36 0
118 -410 107 0
119 -39 -120 0
119 -411 -39 -68 0
-119 39 0
-119 411 120 0
-119 68 120 0
-120 406 -407 0
-120 -406 121 0
-120 406 424 0
120 -406 -121 0
120 406 407 -424 0
-121 410 411 412 0
121 -410 0
121 -412 0
121 -411 0
-122 44 98 125 0
-122 -44 98 123 0
122 -98 0
122 44 -125 0
122 -44 -123 0
-123 -46 124 0
-123 431 124 0
123 -124 0
123 -431 46 0
-124 407 432 0
-124 -407 413 0
-124 407 452 0
124 -407 -413 0
124 407 -432 -452 0
125 -433 100 0
-125 433 0
-125 -100 0
-126 428 118 122 0
-126 429 118 -122 0
126 -118 0
126 -429 -122 0
126 -428 122 0
127 128 -137 0
-127 -128 0
-127 137 0
128 -426 -129 -133 0
128 -427 -129 133 0
-128 129 0
-128 427 133 0
-128 426 -133 0
-129 411 36 130 0
-129 -411 -107 130 0
129 -130 0
129 411 -36 0
129 -411 107 0
130 -39 -131 0
130 -412 -39 -68 0
-130 39 0
-130 412 131 0
-130 68 131 0
-131 406 -407 0
-131 -406 -132 0
-131 406 425 0
131 -406 132 0
131 406 407 -425 0
132 411 -412 0
132 -411 412 0
-132 -411 -412 0
-132 411 412 0
-133 44 98 136 0
-133 -44 98 134 0
133 -98 0
133 44 -136 0
133 -44 -134 0
-134 -46 135 0
-134 432 135 0
134 -135 0
134 -432 46 0
-135 407 433 0
-135 -407 414 0
-135 407 452 0
135 -407 -414 0
135 407 -433 -452 0
136 -434 100 0
-136 434 0
-136 -100 0
-137 428 129 133 0
-137 429 129 -133 0
137 -129 0
137 -429 -133 0
137 -428 133 0
-138 139 141 0
-138 88 141 0
138 -141 0
138 -88 -139 0
-139 34 65 140 0
-139 65 51 140 0
139 -140 0
139 -65 0
139 -34 -51 0
-140 64 0
-140 78 77 0
-140 53 78 0
140 -64 -78 0
140 -53 -64 -77 0
-141 90 117 142 0
-141 117 103 142 0
141 -142 0
141 -117 0
141 -90 -103 0
-142 116 0
-142 128 127 0
-142 105 128 0
142 -116 -128 0
142 -105 -116 -127 0
-143 144 152 0
143 -144 0
143 -152 0
-144 145 148 0
144 -145 0
144 -148 0
145 -53 146 0
-145 53 0
-145 -146 0
146 -451 -147 0
-146 451 0
-146 147 0
147 404 -405 406 -430 0
-147 405 0
-147 -406 0
-147 -404 0
-147 430 0
148 -149 -151 0
-148 149 0
-148 151 0
-149 -52 -150 0
-149 52 150 0
149 52 -150 0
149 -52 150 0
150 -54 -146 0
-150 54 0
-150 146 0
151 -34 146 0
-151 34 0
-151 -146 0
152 -149 -153 0
-152 149 0
-152 153 0
153 -450 -154 0
-153 450 0
-153 154 0
-154 -33 -155 0
-154 33 155 0
154 33 -155 0
154 -33 155 0
155 -35 -146 0
-155 35 0
-155 146 0
-156 -404 165 0
-156 157 165 0
156 -165 0
156 404 -157 0
-157 158 159 0
157 -158 0
157 -159 0
158 -139 146 0
-158 139 0
-158 -146 0
159 -450 -160 0
-159 450 0
-159 160 0
160 -146 -161 0
160 -32 146 0
-160 -146 161 0
-160 32 146 0
161 -58 -164 0
161 -162 58 163 0
-161 -58 164 0
-161 58 -163 0
-161 162 58 0
162 -427 43 0
-162 427 0
-162 -43 0
-163 71 83 0
163 -71 0
163 -83 0
164 427 -43 -71 -83 0
-164 83 0
-164 71 0
-164 -427 0
-164 43 0
165 -14 -166 0
165 -404 166 167 0
-165 166 -167 0
-165 14 -166 0
-165 404 166 0
166 408 -16 0
-166 -408 0
-166 16 0
-167 414 415 416 417 0
167 -417 0
167 -416 0
167 -414 0
167 -415 0
-168 -169 171 0
-168 -450 -154 171 0
-168 450 154 171 0
168 -171 0
168 -450 154 169 0
168 450 -154 169 0
169 166 -170 0
-169 -166 0
-169 170 0
170 -404 -406 0
170 -404 409 0
170 -404 405 0
-170 404 0
-170 -405 406 -409 0
171 -172 -174 0
171 -154 -174 0
-171 174 0
-171 154 172 0
-172 406 173 0
172 -406 0
172 -173 0
-173 405 407 0
173 -405 0
173 -407 0
174 -176 -169 198 0
174 175 -169 198 0
-174 169 0
-174 -198 0
-174 -175 176 0
175 -426 -13 0
175 406 -13 0
-175 13 0
-175 -406 426 0
176 -177 -194 0
176 -177 -193 0
176 -177 195 0
-176 177 0
-176 193 194 -195 0
-177 178 186 188 190 0
177 -190 0
177 -188 0
177 -178 0
177 -186 0
-178 411 179 184 0
-178 179 183 184 0
178 -184 0
178 -179 0
178 -411 -183 0
-179 413 181 0
-179 180 181 0
179 -181 0
179 -413 -180 0
180 -406 -427 428 429 0
-180 427 0
-180 -429 0
-180 406 0
-180 -428 0
181 -414 -182 0
-181 414 0
-181 182 0
182 -406 427 -428 -429 0
-182 429 0
-182 406 0
-182 428 0
-182 -427 0
183 -406 -427 -428 429 0
-183 428 0
-183 -429 0
-183 406 0
-183 427 0
-184 407 185 0
-184 407 412 0
184 -407 0
184 -412 -185 0
185 -406 -427 428 -429 0
-185 429 0
-185 406 0
-185 427 0
-185 -428 0
186 -416 -187 0
-186 416 0
-186 187 0
187 -406 427 428 -429 0
-187 429 0
-187 -428 0
-187 406 0
-187 -427 0
188 -415 189 0
-188 415 0
-188 -189 0
-189 406 0
-189 427 -428 429 0
189 -406 -427 0
189 -406 428 0
189 -406 -429 0
-190 191 192 0
-190 410 425 0
-190 425 192 0
-190 410 191 0
190 -425 -191 0
190 -410 -192 0
191 -406 427 428 429 0
-191 -429 0
-191 -428 0
-191 406 0
-191 -427 0
192 -406 -427 -428 -429 0
-192 429 0
-192 406 0
-192 428 0
-192 427 0
-193 443 187 0
-193 442 -189 0
-193 187 -189 0
-193 442 443 0
193 -442 -187 0
193 -443 189 0
-194 180 182 0
-194 444 445 0
-194 445 182 0
-194 444 180 0
194 -445 -180 0
194 -444 -182 0
195 -407 185 196 0
195 -407 446 196 0
-195 -196 0
-195 407 0
-195 -446 -185 0
-196 183 197 0
-196 447 197 0
196 -197 0
196 -447 -183 0
-197 191 192 0
-197 448 449 0
-197 449 192 0
-197 448 191 0
197 -449 -191 0
197 -448 -192 0
198 -199 201 0
198 3 -199 -200 0
-198 199 0
-198 -3 -201 0
-198 200 -201 0
199 -172 175 0
-199 172 0
-199 -175 0
200 407 -16 0
-200 -407 0
-200 16 0
201 -417 202 0
201 -16 202 0
-201 -202 0
-201 417 16 0
202 409 14 -203 0
202 -409 -28 -203 0
-202 203 0
-202 409 -14 0
-202 -409 28 0
203 -407 -16 0
-203 407 0
-203 16 0
-204 207 224 0
-204 173 205 224 0
204 -224 0
204 -205 -207 0
204 -173 -207 0
-205 -89 -206 0
-205 89 206 0
205 89 -206 0
205 -89 206 0
206 -91 -146 0
-206 91 0
-206 146 0
207 -413 -169 209 0
207 -169 208 209 0
-207 169 0
-207 -209 0
-207 413 -208 0
208 -173 175 0
-208 173 0
-208 -175 0
209 -175 -210 0
209 -175 217 219 0
-209 175 0
-209 210 -219 0
-209 210 -217 0
210 444 211 -212 0
210 192 211 -212 0
-210 212 0
-210 -211 0
-210 -444 -192 0
-211 188 191 0
-211 445 188 0
211 -188 0
211 -445 -191 0
212 180 213 -214 0
212 417 213 -214 0
-212 214 0
-212 -213 0
-212 -417 -180 0
213 -442 -185 0
-213 442 0
-213 185 0
214 -407 183 215 0
214 -407 443 215 0
-214 -215 0
-214 407 0
-214 -443 -183 0
-215 416 216 0
-215 182 216 0
215 -216 0
215 -416 -182 0
216 -414 -187 0
-216 414 0
-216 187 0
-217 407 424 218 0
-217 407 185 218 0
217 -407 0
217 -218 0
217 -424 -185 0
218 -423 -183 0
-218 423 0
-218 183 0
-219 192 220 221 0
-219 422 220 221 0
219 -221 0
219 -220 0
219 -422 -192 0
220 -421 -191 0
-220 421 0
-220 191 0
-221 -189 222 223 0
-221 411 222 223 0
221 -223 0
221 -222 0
221 -411 189 0
222 -412 -187 0
-222 412 0
-222 187 0
-223 180 182 0
-223 410 425 0
-223 425 182 0
-223 410 180 0
223 -425 -180 0
223 -410 -182 0
224 169 -225 0
-224 -169 0
-224 225 0
-225 -159 -226 0
-225 159 226 0
225 159 -226 0
225 -159 226 0
226 -158 205 0
226 158 -205 0
-226 158 205 0
-226 -158 -205 0
-227 -12 246 0
-227 -228 246 0
-227 229 246 0
227 -246 0
227 12 228 -229 0
228 -404 405 0
-228 404 0
-228 -405 0
-229 -230 -239 0
-229 230 239 0
229 230 -239 0
229 -230 239 0
230 -450 231 -238 0
230 -450 -231 238 0
-230 450 0
-230 -231 -238 0
-230 231 238 0
231 -160 -232 0
-231 160 0
-231 232 0
232 -205 -233 0
-232 205 0
-232 233 0
233 -234 -236 0
-233 234 0
-233 236 0
-234 -104 -235 0
-234 104 235 0
234 104 -235 0
234 -104 235 0
235 -106 -146 0
-235 106 0
-235 146 0
-236 -127 -237 0
-236 127 237 0
236 127 -237 0
236 -127 237 0
237 -129 -147 0
-237 129 0
-237 147 0
238 -88 -160 0
-238 88 0
-238 160 0
239 -240 241 0
239 240 -241 0
-239 240 241 0
-239 -240 -241 0
-240 88 141 0
-240 141 158 0
240 -141 0
240 -88 -158 0
-241 236 242 244 0
-241 242 244 245 0
241 -242 0
241 -244 0
241 -236 -245 0
-242 128 233 0
-242 -147 243 0
-242 -147 233 0
-242 128 243 0
242 -128 147 0
242 -233 -243 0
243 -90 146 0
-243 90 0
-243 -146 0
244 -158 -232 0
-244 158 0
-244 232 0
245 -105 146 0
-245 105 0
-245 -146 0
-246 12 247 0
-246 82 247 0
-246 417 247 0
246 -247 0
246 -417 -12 -82 0
247 410 -412 -228 0
247 -410 -228 -248 0
-247 228 0
-247 -410 248 0
-247 410 412 0
248 411 -412 -413 0
248 -411 412 -413 0
-248 413 0
-248 411 412 0
-248 -411 -412 0
-249 166 265 0
-249 250 265 0
-249 257 265 0
249 -265 0
249 -166 -250 -257 0
-250 157 251 0
-250 157 253 0
250 -157 0
250 -251 -253 0
-251 -153 -252 0
-251 153 252 0
251 153 -252 0
251 -153 252 0
252 149 -151 0
252 -149 151 0
-252 -149 -151 0
-252 149 151 0
-253 -254 -256 0
-253 254 256 0
253 254 -256 0
253 -254 256 0
-254 -77 -255 0
-254 77 255 0
254 77 -255 0
254 -77 255 0
255 -79 -146 0
-255 79 0
-255 146 0
256 144 -152 0
256 -144 152 0
-256 -144 -152 0
-256 144 152 0
-257 258 260 0
-257 -258 -260 0
257 -258 260 0
257 258 -260 0
258 -153 -259 0
-258 153 0
-258 259 0
259 -149 -254 0
-259 149 0
-259 254 0
-260 261 263 0
-260 -261 -263 0
260 -261 263 0
260 261 -263 0
-261 -64 -262 0
-261 64 262 0
261 64 -262 0
261 -64 262 0
262 -66 -146 0
-262 66 0
-262 146 0
-263 254 264 0
-263 145 264 0
263 -264 0
263 -145 -254 0
-264 78 151 0
-264 -146 259 0
-264 -146 151 0
-264 78 259 0
264 -78 146 0
264 -151 -259 0
-265 -170 266 0
-265 257 266 0
265 -266 0
265 170 -257 0
266 -172 -169 267 0
266 -169 -261 267 0
-266 -267 0
-266 169 0
-266 172 261 0
-267 268 282 0
-267 -414 16 268 0
267 -268 0
267 414 -282 0
267 -16 -282 0
268 -175 269 0
268 -175 276 -279 0
-268 175 0
-268 -269 279 0
-268 -269 -276 0
-269 270 273 274 275 0
269 -275 0
269 -274 0
269 -270 0
269 -273 0
-270 424 271 272 0
-270 183 271 272 0
270 -272 0
270 -271 0
270 -424 -183 0
-271 411 180 0
-271 410 182 0
-271 180 182 0
-271 410 411 0
271 -410 -180 0
271 -411 -182 0
-272 407 185 0
-272 407 425 0
272 -407 0
272 -425 -185 0
273 -413 -187 0
-273 413 0
-273 187 0
274 -412 189 0
-274 412 0
-274 -189 0
-275 423 191 0
-275 422 192 0
-275 191 192 0
-275 422 423 0
275 -422 -191 0
275 -423 -192 0
-276 -189 277 278 0
-276 416 277 278 0
276 -278 0
276 -277 0
276 -416 189 0
277 -415 -187 0
-277 415 0
-277 187 0
-278 180 182 0
-278 417 442 0
-278 442 182 0
-278 417 180 0
278 -442 -180 0
278 -417 -182 0
279 -407 185 280 0
279 -407 443 280 0
-279 -280 0
-279 407 0
-279 -443 -185 0
-280 183 281 0
-280 444 281 0
280 -281 0
280 -444 -183 0
-281 191 192 0
-281 445 446 0
-281 446 192 0
-281 445 191 0
281 -446 -191 0
281 -445 -192 0
282 -18 -199 0
282 -199 203 0
-282 199 0
-282 18 -203 0
-283 297 303 0
-283 -175 284 303 0
283 -303 0
283 -284 -297 0
283 175 -297 0
284 -285 -293 0
284 -285 -292 0
284 -285 294 0
-284 285 0
-284 292 293 -294 0
-285 277 286 289 291 0
285 -277 0
285 -291 0
285 -289 0
285 -286 0
-286 425 287 288 0
-286 192 287 288 0
286 -288 0
286 -287 0
286 -425 -192 0
-287 180 185 0
-287 411 412 0
-287 412 185 0
-287 411 180 0
287 -412 -180 0
287 -411 -185 0
-288 407 183 0
-288 407 410 0
288 -407 0
288 -410 -183 0
-289 424 290 0
-289 191 290 0
289 -290 0
289 -424 -191 0
290 -414 189 0
-290 414 0
-290 -189 0
291 -413 -182 0
-291 413 0
-291 182 0
-292 442 187 0
-292 417 -189 0
-292 187 -189 0
-292 417 442 0
292 -417 -187 0
292 -442 189 0
-293 180 182 0
-293 443 444 0
-293 444 182 0
-293 443 180 0
293 -444 -180 0
293 -443 -182 0
294 -407 185 295 0
294 -407 445 295 0
-294 -295 0
-294 407 0
-294 -445 -185 0
-295 183 296 0
-295 446 296 0
295 -296 0
295 -446 -183 0
-296 191 192 0
-296 447 448 0
-296 448 192 0
-296 447 191 0
296 -448 -191 0
296 -447 -192 0
297 -172 -169 298 0
297 -149 -169 298 0
-297 169 0
-297 -298 0
-297 149 172 0
298 -199 302 0
298 -199 -203 299 0
-298 199 0
-298 203 -302 0
-298 -299 -302 0
-299 300 -301 0
-299 411 300 0
-299 -167 300 0
299 -300 0
299 -411 167 301 0
300 -409 21 0
-300 409 0
-300 -21 0
-301 409 410 413 0
-301 409 410 412 0
301 -409 0
301 -410 0
301 -412 -413 0
302 -416 16 0
302 -407 -16 0
302 -16 167 0
-302 416 16 0
-302 407 -16 -167 0
303 170 -251 0
303 157 -166 251 0
303 -157 -166 -251 0
-303 166 251 0
-303 157 -170 -251 0
-303 -157 251 0
-303 166 -170 0
-304 166 306 0
-304 253 305 306 0
-304 -253 -305 306 0
304 -306 0
304 -166 -253 305 0
304 -166 253 -305 0
305 157 -251 0
-305 -157 0
-305 251 0
-306 -170 307 0
-306 253 307 0
306 -307 0
306 170 -253 0
307 -172 -169 308 0
307 -169 -254 308 0
-307 -308 0
-307 169 0
-307 172 254 0
-308 309 322 0
-308 -415 16 309 0
308 -309 0
308 415 -322 0
308 -16 -322 0
309 -175 310 0
309 -175 316 -319 0
-309 175 0
-309 -310 319 0
-309 -310 -316 0
-310 216 311 314 315 0
310 -216 0
310 -315 0
310 -314 0
310 -311 0
-311 424 312 313 0
-311 192 312 313 0
311 -313 0
311 -312 0
311 -424 -192 0
-312 180 185 0
-312 410 411 0
-312 411 185 0
-312 410 180 0
312 -411 -180 0
312 -410 -185 0
-313 407 183 0
-313 407 425 0
313 -407 0
313 -425 -183 0
-314 423 182 0
-314 412 191 0
-314 182 191 0
-314 412 423 0
314 -412 -182 0
314 -423 -191 0
315 -413 189 0
-315 413 0
-315 -189 0
-316 180 317 318 0
-316 443 317 318 0
316 -317 0
316 -318 0
316 -443 -180 0
-317 447 182 0
-317 442 191 0
-317 182 191 0
-317 442 447 0
317 -442 -182 0
317 -447 -191 0
318 -444 -185 0
-318 444 0
-318 185 0
319 -407 183 320 0
319 -407 445 320 0
-319 -320 0
-319 407 0
-319 -445 -183 0
-320 417 186 321 0
-320 186 -189 321 0
320 -321 0
320 -186 0
320 -417 189 0
321 -446 -192 0
-321 446 0
-321 192 0
322 -25 -199 0
322 -199 203 0
-322 199 0
-322 25 -203 0
-323 166 336 0
-323 324 331 336 0
-323 -324 -331 336 0
323 -336 0
323 -166 324 -331 0
323 -166 -324 331 0
324 -325 330 0
-324 325 0
-324 -330 0
-325 -326 -327 0
-325 326 327 0
325 326 -327 0
325 -326 327 0
326 -159 -205 0
-326 159 0
-326 205 0
327 -234 328 0
327 234 -328 0
-327 234 328 0
-327 -234 -328 0
-328 329 243 0
328 -329 0
328 -243 0
329 -158 -205 0
-329 158 0
-329 205 0
-330 238 240 0
-330 450 240 0
330 -240 0
330 -450 -238 0
331 332 -335 0
331 -332 335 0
-331 -332 -335 0
-331 332 335 0
-332 236 333 0
-332 -236 -333 0
332 -236 333 0
332 236 -333 0
-333 245 334 0
333 -245 0
333 -334 0
334 -234 -328 0
-334 234 0
-334 328 0
335 -234 -326 0
-335 234 0
-335 326 0
-336 337 350 0
-336 173 236 350 0
336 -350 0
336 -236 -337 0
336 -173 -337 0
337 -411 -169 338 0
337 -169 208 338 0
-337 169 0
-337 -338 0
-337 411 -208 0
338 -175 343 0
338 -175 339 -340 0
-338 175 0
-338 -339 -343 0
-338 340 -343 0
-339 415 181 315 0
-339 180 181 315 0
339 -315 0
339 -181 0
339 -415 -180 0
340 183 222 -341 0
340 417 222 -341 0
-340 341 0
-340 -222 0
-340 -417 -183 0
341 -407 192 342 0
341 -407 442 342 0
-341 -342 0
-341 407 0
-341 -442 -192 0
-342 443 185 0
-342 416 191 0
-342 185 191 0
-342 416 443 0
342 -416 -185 0
342 -443 -191 0
-343 421 344 345 0
-343 183 344 345 0
343 -345 0
343 -344 0
343 -421 -183 0
-344 407 185 0
-344 407 422 0
344 -407 0
344 -422 -185 0
-345 192 346 347 0
-345 420 346 347 0
345 -347 0
345 -346 0
345 -420 -192 0
346 -419 -191 0
-346 419 0
-346 191 0
-347 187 348 349 0
-347 410 348 349 0
347 -349 0
347 -348 0
347 -410 -187 0
348 -425 189 0
-348 425 0
-348 -189 0
-349 424 180 0
-349 423 182 0
-349 180 182 0
-349 423 424 0
349 -423 -180 0
349 -424 -182 0
350 170 -331 0
-350 -170 0
-350 331 0
-351 354 369 0
-351 173 352 369 0
351 -369 0
351 -352 -354 0
351 -173 -354 0
-352 -116 -353 0
-352 116 353 0
352 116 -353 0
352 -116 353 0
353 -118 -147 0
-353 118 0
-353 147 0
354 -410 -169 355 0
354 -169 208 355 0
-354 169 0
-354 -355 0
-354 410 -208 0
355 -408 410 -175 0
355 408 -175 356 0
-355 175 0
-355 408 -356 0
-355 -408 -410 0
356 357 -365 0
356 357 -364 0
356 357 -366 0
-356 -357 0
-356 364 365 366 0
357 -407 358 360 361 0
-357 -361 0
-357 407 0
-357 -358 0
-357 -360 0
-358 414 359 0
-358 180 359 0
358 -359 0
358 -414 -180 0
359 -411 -187 0
-359 411 0
-359 187 0
360 -415 -185 0
-360 415 0
-360 185 0
-361 417 362 363 0
-361 192 362 363 0
361 -363 0
361 -362 0
361 -417 -192 0
-362 442 274 0
-362 191 274 0
362 -274 0
362 -442 -191 0
-363 416 291 0
-363 183 291 0
363 -291 0
363 -416 -183 0
-364 187 -189 0
-364 424 425 0
-364 425 -189 0
-364 424 187 0
364 -425 -187 0
364 -424 189 0
-365 423 180 0
-365 422 182 0
-365 180 182 0
-365 422 423 0
365 -422 -180 0
365 -423 -182 0
-366 407 421 367 0
-366 407 185 367 0
366 -407 0
366 -367 0
366 -421 -185 0
-367 183 368 0
-367 420 368 0
367 -368 0
367 -420 -183 0
-368 419 191 0
-368 418 192 0
-368 191 192 0
-368 418 419 0
368 -418 -191 0
368 -419 -192 0
369 -370 371 -372 0
369 370 -371 -372 0
369 170 -370 371 0
369 170 370 -371 0
-369 -370 -371 0
-369 370 371 0
-369 -170 372 0
370 -450 -231 0
-370 450 0
-370 231 0
371 -241 352 0
371 241 -352 0
-371 241 352 0
-371 -241 -352 0
372 -166 -330 0
372 -166 -325 -331 0
-372 166 0
-372 325 330 0
-372 330 331 0
-373 374 387 0
-373 173 234 387 0
373 -387 0
373 -234 -374 0
373 -173 -374 0
374 -412 -169 375 0
374 -169 208 375 0
-374 169 0
-374 -375 0
-374 412 -208 0
375 -175 -376 0
375 -175 381 383 0
-375 175 0
-375 376 -383 0
-375 376 -381 0
376 443 377 -378 0
376 192 377 -378 0
-376 378 0
-376 -377 0
-376 -443 -192 0
-377 415 273 0
-377 182 273 0
377 -273 0
377 -415 -182 0
378 183 290 -379 0
378 442 290 -379 0
-378 379 0
-378 -290 0
-378 -442 -183 0
379 -407 185 380 0
379 -407 417 380 0
-379 -380 0
-379 407 0
-379 -417 -185 0
-380 444 180 0
-380 416 191 0
-380 180 191 0
-380 416 444 0
380 -416 -180 0
380 -444 -191 0
-381 407 422 382 0
-381 407 183 382 0
381 -407 0
381 -382 0
381 -422 -183 0
382 -421 -192 0
-382 421 0
-382 192 0
-383 -189 359 384 0
-383 410 359 384 0
383 -384 0
383 -359 0
383 -410 189 0
-384 180 385 386 0
-384 424 385 386 0
384 -385 0
384 -386 0
384 -424 -180 0
-385 182 191 0
-385 420 425 0
-385 425 191 0
-385 420 182 0
385 -425 -182 0
385 -420 -191 0
386 -423 -185 0
-386 423 0
-386 185 0
387 170 -325 0
387 -166 325 330 0
387 -166 -325 -330 0
-387 166 325 0
-387 -170 -325 330 0
-387 166 -170 0
-387 325 -330 0
-388 389 390 391 392 0
388 -392 0
388 -389 0
388 -391 0
388 -390 0
-389 204 373 0
389 -204 0
389 -373 0
-390 168 283 0
390 -168 0
390 -283 0
-391 323 351 0
391 -323 0
391 -351 0
-392 249 304 0
392 -249 0
392 -304 0
393 -430 -451 -388 0
393 -430 -391 -388 0
-393 430 0
-393 388 0
-393 451 391 0
394 395 -398 0
394 -395 398 0
-394 -395 -398 0
-394 395 398 0
-395 -396 -397 0
-395 396 397 0
395 396 -397 0
395 -396 397 0
396 -168 283 0
396 168 -283 0
-396 168 283 0
-396 -168 -283 0
397 -249 304 0
397 249 -304 0
-397 249 304 0
-397 -249 -304 0
398 399 -401 0
398 453 -399 -400 0
398 -453 -399 400 0
-398 399 401 0
-398 453 -399 400 0
-398 -453 -399 -400 0
399 -430 451 0
-399 430 0
-399 -451 0
400 -204 373 0
400 204 -373 0
-400 204 373 0
-400 -204 -373 0
-401 -400 -402 0
-401 400 402 0
401 400 -402 0
401 -400 402 0
402 -323 351 0
402 323 -351 0
-402 323 351 0
-402 -323 -351 0
403 -395 401 0
403 395 -401 0
-403 395 401 0
-403 -395 -401 0
-454 0
-2 0
-3 0
-4 0
-17 0
-24 0
31 0
138 0
143 0
156 0
168 0
204 0
227 0
249 0
283 0
304 0
323 0
351 0
373 0
388 0
-393 0
-394 0
-403 0

